Pt                                      
   1.00000000000000     
     8.3879462762997452    0.0000000000000000    0.0000000000000000
     4.1939731381498726    7.2641745608546646    0.0000000000000000
     0.0000000000000000    0.0000000000000000   21.8487294556041931
   Pt
    36
Selective dynamics
Direct
  0.0000000000000000  0.0000000000000000  0.0000000000000000   F   F   F
  0.3333333333333357  0.0000000000000000  0.0000000000000000   F   F   F
  0.6666666666666643  0.0000000000000000  0.0000000000000000   F   F   F
  0.0000000000000000  0.3333333333333357  0.0000000000000000   F   F   F
  0.3333333333333357  0.3333333333333357  0.0000000000000000   F   F   F
  0.6666666666666643  0.3333333333333357  0.0000000000000000   F   F   F
  0.0000000000000000  0.6666666666666643  0.0000000000000000   F   F   F
  0.3333333333333357  0.6666666666666643  0.0000000000000000   F   F   F
  0.6666666666666643  0.6666666666666643  0.0000000000000000   F   F   F
  0.1111111111111143  0.1111111111111143  0.1044870743247941   F   F   F
  0.4444444444444429  0.1111111111111143  0.1044870743247941   F   F   F
  0.7777777777777786  0.1111111111111143  0.1044870743247941   F   F   F
  0.1111111111111143  0.4444444444444429  0.1044870743247941   F   F   F
  0.4444444444444429  0.4444444444444429  0.1044870743247941   F   F   F
  0.7777777777777786  0.4444444444444429  0.1044870743247941   F   F   F
  0.1111111111111143  0.7777777777777786  0.1044870743247941   F   F   F
  0.4444444444444429  0.7777777777777786  0.1044870743247941   F   F   F
  0.7777777777777786  0.7777777777777786  0.1044870743247941   F   F   F
  0.8888888888888857  0.2222222222222214  0.2083210553244896   T   T   T
  0.2222222222222214  0.2222222222222214  0.2083210553244896   T   T   T
  0.5555555555555571  0.2222222222222214  0.2083210553244896   T   T   T
  0.8888888888888857  0.5555555555555571  0.2083210553244896   T   T   T
  0.2222222222222214  0.5555555555555571  0.2083210553244896   T   T   T
  0.5555555555555571  0.5555555555555571  0.2083210553244896   T   T   T
  0.8888888888888857  0.8888888888888857  0.2083210553244896   T   T   T
  0.2222222222222214  0.8888888888888857  0.2083210553244896   T   T   T
  0.5555555555555571  0.8888888888888857  0.2083210553244896   T   T   T
  0.0000000000000000  0.0000000000000000  0.3138801053453619   T   T   T
  0.3333333333333357  0.0000000000000000  0.3138801053453619   T   T   T
  0.6666666666666643  0.0000000000000000  0.3138801053453619   T   T   T
  0.0000000000000000  0.3333333333333357  0.3138801053453619   T   T   T
  0.3333333333333357  0.3333333333333357  0.3138801053453619   T   T   T
  0.6666666666666643  0.3333333333333357  0.3138801053453619   T   T   T
  0.0000000000000000  0.6666666666666643  0.3138801053453619   T   T   T
  0.3333333333333357  0.6666666666666643  0.3138801053453619   T   T   T
  0.6666666666666643  0.6666666666666643  0.3138801053453619   T   T   T
 
  0.00000000E+00  0.00000000E+00  0.00000000E+00
  0.00000000E+00  0.00000000E+00  0.00000000E+00
  0.00000000E+00  0.00000000E+00  0.00000000E+00
  0.00000000E+00  0.00000000E+00  0.00000000E+00
  0.00000000E+00  0.00000000E+00  0.00000000E+00
  0.00000000E+00  0.00000000E+00  0.00000000E+00
  0.00000000E+00  0.00000000E+00  0.00000000E+00
  0.00000000E+00  0.00000000E+00  0.00000000E+00
  0.00000000E+00  0.00000000E+00  0.00000000E+00
  0.00000000E+00  0.00000000E+00  0.00000000E+00
  0.00000000E+00  0.00000000E+00  0.00000000E+00
  0.00000000E+00  0.00000000E+00  0.00000000E+00
  0.00000000E+00  0.00000000E+00  0.00000000E+00
  0.00000000E+00  0.00000000E+00  0.00000000E+00
  0.00000000E+00  0.00000000E+00  0.00000000E+00
  0.00000000E+00  0.00000000E+00  0.00000000E+00
  0.00000000E+00  0.00000000E+00  0.00000000E+00
  0.00000000E+00  0.00000000E+00  0.00000000E+00
  0.00000000E+00  0.00000000E+00  0.00000000E+00
  0.00000000E+00  0.00000000E+00  0.00000000E+00
  0.00000000E+00  0.00000000E+00  0.00000000E+00
  0.00000000E+00  0.00000000E+00  0.00000000E+00
  0.00000000E+00  0.00000000E+00  0.00000000E+00
  0.00000000E+00  0.00000000E+00  0.00000000E+00
  0.00000000E+00  0.00000000E+00  0.00000000E+00
  0.00000000E+00  0.00000000E+00  0.00000000E+00
  0.00000000E+00  0.00000000E+00  0.00000000E+00
  0.00000000E+00  0.00000000E+00  0.00000000E+00
  0.00000000E+00  0.00000000E+00  0.00000000E+00
  0.00000000E+00  0.00000000E+00  0.00000000E+00
  0.00000000E+00  0.00000000E+00  0.00000000E+00
  0.00000000E+00  0.00000000E+00  0.00000000E+00
  0.00000000E+00  0.00000000E+00  0.00000000E+00
  0.00000000E+00  0.00000000E+00  0.00000000E+00
  0.00000000E+00  0.00000000E+00  0.00000000E+00
  0.00000000E+00  0.00000000E+00  0.00000000E+00
