BLK                                     
   1.00000000000000     
     7.5027830000000000    0.0000000000000000    0.0000000000000000
     3.7513909999999999    6.4976000000000003    0.0000000000000000
     0.0000000000000000    0.0000000000000000   21.0217390000000002
   Co   C    H    F 
    36     1     3     1
Selective dynamics
Direct
  0.8888890000014626  0.2222220000000021  0.0000000000000000   F   F   F
  0.2222219999962647  0.2222220000000021  0.0000000000000000   F   F   F
  0.5555560000066606  0.2222220000000021  0.0000000000000000   F   F   F
  0.8888890000022656  0.5555560000000028  0.0000000000000000   F   F   F
  0.2222219999970676  0.5555560000000028  0.0000000000000000   F   F   F
  0.5555559999941337  0.5555560000000028  0.0000000000000000   F   F   F
  0.8888890000018677  0.8888889999999989  0.0000000000000000   F   F   F
  0.2222219999966697  0.8888889999999989  0.0000000000000000   F   F   F
  0.5555559999937358  0.8888889999999989  0.0000000000000000   F   F   F
  0.0000000000000000  0.0000000000000000  0.0954840000011430   F   F   F
  0.3333329999948020  0.0000000000000000  0.0954840000011430   F   F   F
  0.6666670000051980  0.0000000000000000  0.0954840000011430   F   F   F
  0.9999999999996021  0.3333330000000032  0.0954840000011430   F   F   F
  0.3333329999944041  0.3333330000000032  0.0954840000011430   F   F   F
  0.6666670000048001  0.3333330000000032  0.0954840000011430   F   F   F
  0.0000000000003979  0.6666669999999968  0.0954840000011430   F   F   F
  0.3333329999951999  0.6666669999999968  0.0954840000011430   F   F   F
  0.6666670000055959  0.6666669999999968  0.0954840000011430   F   F   F
  0.8892485871621405  0.2226504180899673  0.1944776048697875   T   T   T
  0.2225822719956107  0.2228100117664378  0.1942663977971673   T   T   T
  0.5558833301022849  0.2227270015881159  0.1943508982984311   T   T   T
  0.8892686558094300  0.5559543670864503  0.1943384437655917   T   T   T
  0.2225111965636015  0.5561101286704114  0.1944044389559595   T   T   T
  0.5559026671259264  0.5561283102724514  0.1943508260758045   T   T   T
  0.8892419749874614  0.8894097136801646  0.1943951970877945   T   T   T
  0.2225753618838348  0.8893452595276798  0.1944780326653254   T   T   T
  0.5561171139473323  0.8893338119438888  0.1942486329061846   T   T   T
  0.0003394365231601  0.0007099335522362  0.2871671849213438   T   T   T
  0.3342552176971145  0.0007068040442401  0.2868145025353054   T   T   T
  0.6672534660723773  0.0005359680228721  0.2867979959206585   T   T   T
  0.0003936755415412  0.3342309253364890  0.2868719062161206   T   T   T
  0.3338626753735874  0.3339459534157155  0.2867715041455958   T   T   T
  0.6671215748880034  0.3338339682620947  0.2868246673099720   T   T   T
  0.0002598255619334  0.6670755877680608  0.2867401143802038   T   T   T
  0.3339723626136178  0.6669340928697746  0.2870394423384087   T   T   T
  0.6674934398742316  0.6670836671540352  0.2867878860112840   T   T   T
  0.1747050686337916  0.8438667194047534  0.4909030799826725   T   T   T
  0.1011788994592628  0.7490613479278285  0.4949951575833040   T   T   T
  0.0762697627994563 -0.0032030341842455  0.5119645643025046   T   T   T
  0.3271322403874214  0.7667078822712535  0.5136841428849668   T   T   T
  0.2011099678774551  0.8697680723293184  0.4258203313329731   T   T   T
 
  0.00000000E+00  0.00000000E+00  0.00000000E+00
  0.00000000E+00  0.00000000E+00  0.00000000E+00
  0.00000000E+00  0.00000000E+00  0.00000000E+00
  0.00000000E+00  0.00000000E+00  0.00000000E+00
  0.00000000E+00  0.00000000E+00  0.00000000E+00
  0.00000000E+00  0.00000000E+00  0.00000000E+00
  0.00000000E+00  0.00000000E+00  0.00000000E+00
  0.00000000E+00  0.00000000E+00  0.00000000E+00
  0.00000000E+00  0.00000000E+00  0.00000000E+00
  0.00000000E+00  0.00000000E+00  0.00000000E+00
  0.00000000E+00  0.00000000E+00  0.00000000E+00
  0.00000000E+00  0.00000000E+00  0.00000000E+00
  0.00000000E+00  0.00000000E+00  0.00000000E+00
  0.00000000E+00  0.00000000E+00  0.00000000E+00
  0.00000000E+00  0.00000000E+00  0.00000000E+00
  0.00000000E+00  0.00000000E+00  0.00000000E+00
  0.00000000E+00  0.00000000E+00  0.00000000E+00
  0.00000000E+00  0.00000000E+00  0.00000000E+00
  0.00000000E+00  0.00000000E+00  0.00000000E+00
  0.00000000E+00  0.00000000E+00  0.00000000E+00
  0.00000000E+00  0.00000000E+00  0.00000000E+00
  0.00000000E+00  0.00000000E+00  0.00000000E+00
  0.00000000E+00  0.00000000E+00  0.00000000E+00
  0.00000000E+00  0.00000000E+00  0.00000000E+00
  0.00000000E+00  0.00000000E+00  0.00000000E+00
  0.00000000E+00  0.00000000E+00  0.00000000E+00
  0.00000000E+00  0.00000000E+00  0.00000000E+00
  0.00000000E+00  0.00000000E+00  0.00000000E+00
  0.00000000E+00  0.00000000E+00  0.00000000E+00
  0.00000000E+00  0.00000000E+00  0.00000000E+00
  0.00000000E+00  0.00000000E+00  0.00000000E+00
  0.00000000E+00  0.00000000E+00  0.00000000E+00
  0.00000000E+00  0.00000000E+00  0.00000000E+00
  0.00000000E+00  0.00000000E+00  0.00000000E+00
  0.00000000E+00  0.00000000E+00  0.00000000E+00
  0.00000000E+00  0.00000000E+00  0.00000000E+00
  0.00000000E+00  0.00000000E+00  0.00000000E+00
  0.00000000E+00  0.00000000E+00  0.00000000E+00
  0.00000000E+00  0.00000000E+00  0.00000000E+00
  0.00000000E+00  0.00000000E+00  0.00000000E+00
  0.00000000E+00  0.00000000E+00  0.00000000E+00
