CHBr3                                   
   1.00000000000000     
    15.0000000000000000    0.0000000000000000    0.0000000000000000
     0.0000000000000000   15.0000000000000000    0.0000000000000000
     0.0000000000000000    0.0000000000000000   15.0000000000000000
   Br   C    H 
     3     1     1
Selective dynamics
Direct
  0.9940717424656750  0.1242152877574042  0.0094483473441865   T   T   T
  0.1105489989606260  0.9430546758114834  0.0094523778062991   T   T   T
  0.8953735010858023  0.9327386886635601  0.0094539098886302   T   T   T
 -0.0000024142161108  0.0000022247418413  0.9718667511316241   T   T   T
  0.0000015050373365  0.9999891230257183  0.8991252804959333   T   T   T
 
  0.00000000E+00  0.00000000E+00  0.00000000E+00
  0.00000000E+00  0.00000000E+00  0.00000000E+00
  0.00000000E+00  0.00000000E+00  0.00000000E+00
  0.00000000E+00  0.00000000E+00  0.00000000E+00
  0.00000000E+00  0.00000000E+00  0.00000000E+00
